# Objective value = 10265.25
I_0_0 1088
I_0_1 1200
I_0_2 1.3360000000000002e+03
I_0_3 1.4570000000000002e+03
I_0_4 1.3790000000000005e+03
I_0_5 1.2429999999999977e+03
I_0_6 1.6799999999999977e+03
I_1_0 150
I_1_1 150
I_1_2 75
I_1_3 1.1324274851176597e-14
I_1_4 150
I_1_5 75
I_1_6 1.4210854715202004e-14
I_2_0 88
I_2_1 88
I_2_2 44
I_2_3 -1.7763568394002505e-15
I_2_4 8.8000000000000028e+01
I_2_5 4.3999999999999993e+01
I_2_6 -7.1054273576010019e-15
I_3_0 11
I_3_1 9.6840938046405256e-15
I_3_2 1.0999999999999988e+01
I_3_3 11
I_3_4 11
I_3_5 11
I_3_6 0
I_4_0 20
I_4_1 20
I_4_2 10
I_4_3 0
I_4_4 20
I_4_5 10
I_4_6 -8.8817841970012523e-16
I_5_0 42
I_5_1 0
I_5_2 42
I_5_3 42
I_5_4 3.5527136788005009e-15
I_5_5 42
I_5_6 0
I_6_0 39
I_6_1 39
I_6_2 0
I_6_3 39
I_6_4 38.9999999999999
I_6_5 39
I_6_6 0
I_7_0 118
I_7_1 59
I_7_2 118
I_7_3 59
I_7_4 0
I_7_5 1.1800000000000264e+02
I_7_6 5.9000000000002650e+01
I_8_0 77
I_8_1 77
I_8_2 77
I_8_3 77
I_8_4 0
I_8_5 77
I_8_6 0
I_9_0 54
I_9_1 54
I_9_2 0
I_9_3 54
I_9_4 0
I_9_5 54
I_9_6 0
I_10_0 52
I_10_1 52
I_10_2 26
I_10_3 6.6613381477509392e-16
I_10_4 52
I_10_5 26
I_10_6 0
q_1_0_0 7.5000000000000014e+01
q_1_0_1 0
q_1_0_2 0
q_1_0_3 0
q_1_0_4 3.5527136788005009e-15
q_1_0_5 0
q_1_1_0 -7.28583859910259e-15
q_1_1_1 6.4392935428259079e-15
q_1_1_2 0
q_1_1_3 225
q_1_1_4 0
q_1_1_5 0
q_2_0_0 44
q_2_0_1 0
q_2_0_2 -1.7763568394002505e-15
q_2_0_3 132
q_2_0_4 -2.1316282072803006e-14
q_2_0_5 0
q_2_1_0 0
q_2_1_1 -1.7763568394002505e-15
q_2_1_2 0
q_2_1_3 0
q_2_1_4 0
q_2_1_5 0
q_3_0_0 9.6840938046405256e-15
q_3_0_1 2.1999999999999979e+01
q_3_0_2 1.1000000000000011e+01
q_3_0_3 1.1000000000000004e+01
q_3_0_4 1.0999999999999998e+01
q_3_0_5 0
q_3_1_0 0
q_3_1_1 0
q_3_1_2 0
q_3_1_3 0
q_3_1_4 8.8817841970012523e-16
q_3_1_5 0
q_4_0_0 10
q_4_0_1 0
q_4_0_2 -8.8817841970012523e-16
q_4_0_3 30
q_4_0_4 -1.7763568394002505e-15
q_4_0_5 0
q_4_1_0 0
q_4_1_1 6.6613381477509392e-16
q_4_1_2 0
q_4_1_3 0
q_4_1_4 0
q_4_1_5 0
q_5_0_0 0
q_5_0_1 84
q_5_0_2 42
q_5_0_3 -3.5527136788005009e-15
q_5_0_4 0
q_5_0_5 0
q_5_1_0 0
q_5_1_1 0
q_5_1_2 0
q_5_1_3 0
q_5_1_4 84
q_5_1_5 0
q_6_0_0 39
q_6_0_1 0
q_6_0_2 78
q_6_0_3 38.9999999999999
q_6_0_4 39.0000000000001
q_6_0_5 0
q_6_1_0 -1.0824674490095276e-15
q_6_1_1 0
q_6_1_2 0
q_6_1_3 0
q_6_1_4 0
q_6_1_5 0
q_7_0_0 0
q_7_0_1 118
q_7_0_2 0
q_7_0_3 0
q_7_0_4 2.6485480475457734e-12
q_7_0_5 0
q_7_1_0 -1.6375789613221059e-15
q_7_1_1 0
q_7_1_2 0
q_7_1_3 0
q_7_1_4 177
q_7_1_5 0
q_8_0_0 77
q_8_0_1 77
q_8_0_2 77
q_8_0_3 0
q_8_0_4 154
q_8_0_5 0
q_8_1_0 1.0685896612017132e-15
q_8_1_1 0
q_8_1_2 0
q_8_1_3 0
q_8_1_4 0
q_8_1_5 0
q_9_0_0 54
q_9_0_1 -8.8817841970012523e-16
q_9_0_2 108
q_9_0_3 0
q_9_0_4 108
q_9_0_5 0
q_9_1_0 1.4988010832439613e-15
q_9_1_1 0
q_9_1_2 0
q_9_1_3 0
q_9_1_4 0
q_9_1_5 0
q_10_0_0 26
q_10_0_1 0
q_10_0_2 0
q_10_0_3 78
q_10_0_4 -6.6613381477509392e-16
q_10_0_5 0
q_10_1_0 3.6082248300317588e-16
q_10_1_1 0
q_10_1_2 0
q_10_1_3 0
q_10_1_4 0
q_10_1_5 0
y_0_0_0 1
y_0_0_1 1
y_0_0_2 1
y_0_0_3 1
y_0_0_4 1
y_0_0_5 0
y_0_1_0 -9.71445146547012e-17
y_0_1_1 0
y_0_1_2 0
y_0_1_3 1
y_0_1_4 1
y_0_1_5 0
y_1_0_0 1.0000000000000002e+00
y_1_0_1 0
y_1_0_2 1.2663481374630692e-16
y_1_0_3 0
y_1_0_4 1.1102230246251565e-16
y_1_0_5 0
y_1_1_0 -9.71445146547012e-17
y_1_1_1 4.1633363423443370e-17
y_1_1_2 0
y_1_1_3 1
y_1_1_4 0
y_1_1_5 0
y_2_0_0 1
y_2_0_1 0
y_2_0_2 0
y_2_0_3 1
y_2_0_4 -1.1102230246251565e-16
y_2_0_5 0
y_2_1_0 0
y_2_1_1 0
y_2_1_2 0
y_2_1_3 0
y_2_1_4 0
y_2_1_5 0
y_3_0_0 8.8037216405822960e-16
y_3_0_1 9.9999999999999889e-01
y_3_0_2 1
y_3_0_3 1
y_3_0_4 1
y_3_0_5 0
y_3_1_0 0
y_3_1_1 6.9388939039072284e-17
y_3_1_2 0
y_3_1_3 0
y_3_1_4 5.5511151231257827e-17
y_3_1_5 0
y_4_0_0 1
y_4_0_1 0
y_4_0_2 -1.3877787807814457e-17
y_4_0_3 1
y_4_0_4 -5.5511151231257827e-17
y_4_0_5 0
y_4_1_0 0
y_4_1_1 -1.3877787807814457e-17
y_4_1_2 0
y_4_1_3 0
y_4_1_4 0
y_4_1_5 0
y_5_0_0 0
y_5_0_1 1
y_5_0_2 1
y_5_0_3 -5.5511151231257827e-17
y_5_0_4 0
y_5_0_5 0
y_5_1_0 0
y_5_1_1 0
y_5_1_2 0
y_5_1_3 0
y_5_1_4 1
y_5_1_5 0
y_6_0_0 1
y_6_0_1 0
y_6_0_2 1
y_6_0_3 1
y_6_0_4 1
y_6_0_5 0
y_6_1_0 -2.7755575615628914e-17
y_6_1_1 1.3877787807814457e-17
y_6_1_2 0
y_6_1_3 0
y_6_1_4 0
y_6_1_5 0
y_7_0_0 0
y_7_0_1 1
y_7_0_2 0
y_7_0_3 -5.5511151231257827e-17
y_7_0_4 5.5511151231257827e-17
y_7_0_5 0
y_7_1_0 -2.7755575615628914e-17
y_7_1_1 0
y_7_1_2 0
y_7_1_3 0
y_7_1_4 1
y_7_1_5 0
y_8_0_0 1
y_8_0_1 1
y_8_0_2 1
y_8_0_3 0
y_8_0_4 1
y_8_0_5 0
y_8_1_0 1.3877787807814457e-17
y_8_1_1 0
y_8_1_2 0
y_8_1_3 0
y_8_1_4 0
y_8_1_5 0
y_9_0_0 1
y_9_0_1 0
y_9_0_2 1
y_9_0_3 0
y_9_0_4 1
y_9_0_5 0
y_9_1_0 2.7755575615628914e-17
y_9_1_1 0
y_9_1_2 0
y_9_1_3 0
y_9_1_4 0
y_9_1_5 0
y_10_0_0 1
y_10_0_1 0
y_10_0_2 0
y_10_0_3 1
y_10_0_4 -6.9388939039072284e-18
y_10_0_5 0
y_10_1_0 1.3877787807814457e-17
y_10_1_1 0
y_10_1_2 0
y_10_1_3 0
y_10_1_4 0
y_10_1_5 0
x_0_1_0_0 9.9999999999999978e-01
x_0_1_0_1 0
x_0_1_0_2 1.2490009027033011e-16
x_0_1_0_3 0
x_0_1_0_4 2.2204460492503131e-16
x_0_1_0_5 0
x_0_1_1_0 -1.9428902930940239e-16
x_0_1_1_1 -5.5511151231257827e-17
x_0_1_1_2 0
x_0_1_1_3 2
x_0_1_1_4 0
x_0_1_1_5 0
x_0_2_0_0 1
x_0_2_0_1 0
x_0_2_0_2 2.7755575615628914e-17
x_0_2_0_3 1
x_0_2_0_4 -1.1102230246251565e-16
x_0_2_0_5 0
x_0_2_1_0 0
x_0_2_1_1 0
x_0_2_1_2 0
x_0_2_1_3 0
x_0_2_1_4 0
x_0_2_1_5 0
x_0_3_0_0 0
x_0_3_0_1 9.9999999999999889e-01
x_0_3_0_2 1
x_0_3_0_3 1
x_0_3_0_4 9.9999999999999989e-01
x_0_3_0_5 0
x_0_3_1_0 0
x_0_3_1_1 0
x_0_3_1_2 0
x_0_3_1_3 0
x_0_3_1_4 5.5511151231257827e-17
x_0_3_1_5 0
x_0_4_0_0 0
x_0_4_0_1 0
x_0_4_0_2 0
x_0_4_0_3 5.5511151231257827e-17
x_0_4_0_4 0
x_0_4_0_5 0
x_0_4_1_0 0
x_0_4_1_1 0
x_0_4_1_2 0
x_0_4_1_3 0
x_0_4_1_4 0
x_0_4_1_5 0
x_0_5_0_0 0
x_0_5_0_1 0
x_0_5_0_2 9.9999999999999989e-01
x_0_5_0_3 0
x_0_5_0_4 0
x_0_5_0_5 0
x_0_5_1_0 0
x_0_5_1_1 0
x_0_5_1_2 0
x_0_5_1_3 0
x_0_5_1_4 1
x_0_5_1_5 0
x_0_6_0_0 0
x_0_6_0_1 0
x_0_6_0_2 -3.3306690738754696e-16
x_0_6_0_3 -5.5511151231257827e-17
x_0_6_0_4 0
x_0_6_0_5 0
x_0_6_1_0 0
x_0_6_1_1 0
x_0_6_1_2 0
x_0_6_1_3 0
x_0_6_1_4 0
x_0_6_1_5 0
x_0_7_0_0 0
x_0_7_0_1 1
x_0_7_0_2 0
x_0_7_0_3 -5.5511151231257827e-17
x_0_7_0_4 0
x_0_7_0_5 0
x_0_7_1_0 0
x_0_7_1_1 0
x_0_7_1_2 0
x_0_7_1_3 0
x_0_7_1_4 1
x_0_7_1_5 0
x_0_8_0_0 1.1796119636642288e-16
x_0_8_0_1 9.0552565445989330e-16
x_0_8_0_2 -5.5511151231257827e-17
x_0_8_0_3 0
x_0_8_0_4 1
x_0_8_0_5 0
x_0_8_1_0 0
x_0_8_1_1 0
x_0_8_1_2 0
x_0_8_1_3 0
x_0_8_1_4 -5.5511151231257827e-17
x_0_8_1_5 0
x_0_9_0_0 0
x_0_9_0_1 0
x_0_9_0_2 0
x_0_9_0_3 5.5511151231257827e-17
x_0_9_0_4 0
x_0_9_0_5 0
x_0_9_1_0 0
x_0_9_1_1 0
x_0_9_1_2 0
x_0_9_1_3 0
x_0_9_1_4 0
x_0_9_1_5 0
x_0_10_0_0 0
x_0_10_0_1 0
x_0_10_0_2 0
x_0_10_0_3 0
x_0_10_0_4 0
x_0_10_0_5 0
x_0_10_1_0 0
x_0_10_1_1 0
x_0_10_1_2 0
x_0_10_1_3 0
x_0_10_1_4 0
x_0_10_1_5 0
x_1_2_0_0 0
x_1_2_0_1 0
x_1_2_0_2 0
x_1_2_0_3 0
x_1_2_0_4 0
x_1_2_0_5 0
x_1_2_1_0 0
x_1_2_1_1 0
x_1_2_1_2 0
x_1_2_1_3 0
x_1_2_1_4 0
x_1_2_1_5 0
x_1_3_0_0 9.2807705964759180e-16
x_1_3_0_1 0
x_1_3_0_2 0
x_1_3_0_3 0
x_1_3_0_4 0
x_1_3_0_5 0
x_1_3_1_0 0
x_1_3_1_1 1.3877787807814457e-16
x_1_3_1_2 0
x_1_3_1_3 0
x_1_3_1_4 0
x_1_3_1_5 0
x_1_4_0_0 0
x_1_4_0_1 0
x_1_4_0_2 0
x_1_4_0_3 0
x_1_4_0_4 0
x_1_4_0_5 0
x_1_4_1_0 0
x_1_4_1_1 0
x_1_4_1_2 0
x_1_4_1_3 0
x_1_4_1_4 0
x_1_4_1_5 0
x_1_5_0_0 0
x_1_5_0_1 0
x_1_5_0_2 0
x_1_5_0_3 0
x_1_5_0_4 0
x_1_5_0_5 0
x_1_5_1_0 0
x_1_5_1_1 0
x_1_5_1_2 0
x_1_5_1_3 0
x_1_5_1_4 0
x_1_5_1_5 0
x_1_6_0_0 0
x_1_6_0_1 0
x_1_6_0_2 2.42861286636753e-17
x_1_6_0_3 0
x_1_6_0_4 0
x_1_6_0_5 0
x_1_6_1_0 0
x_1_6_1_1 2.7755575615628914e-17
x_1_6_1_2 0
x_1_6_1_3 0
x_1_6_1_4 0
x_1_6_1_5 0
x_1_7_0_0 0
x_1_7_0_1 0
x_1_7_0_2 0
x_1_7_0_3 0
x_1_7_0_4 0
x_1_7_0_5 0
x_1_7_1_0 0
x_1_7_1_1 0
x_1_7_1_2 0
x_1_7_1_3 0
x_1_7_1_4 0
x_1_7_1_5 0
x_1_8_0_0 9.9999999999999944e-01
x_1_8_0_1 0
x_1_8_0_2 0
x_1_8_0_3 0
x_1_8_0_4 0
x_1_8_0_5 0
x_1_8_1_0 0
x_1_8_1_1 0
x_1_8_1_2 0
x_1_8_1_3 0
x_1_8_1_4 0
x_1_8_1_5 0
x_1_9_0_0 0
x_1_9_0_1 0
x_1_9_0_2 0
x_1_9_0_3 0
x_1_9_0_4 0
x_1_9_0_5 0
x_1_9_1_0 0
x_1_9_1_1 0
x_1_9_1_2 0
x_1_9_1_3 0
x_1_9_1_4 0
x_1_9_1_5 0
x_1_10_0_0 0
x_1_10_0_1 0
x_1_10_0_2 0
x_1_10_0_3 0
x_1_10_0_4 0
x_1_10_0_5 0
x_1_10_1_0 0
x_1_10_1_1 0
x_1_10_1_2 0
x_1_10_1_3 0
x_1_10_1_4 0
x_1_10_1_5 0
x_2_3_0_0 0
x_2_3_0_1 0
x_2_3_0_2 0
x_2_3_0_3 0
x_2_3_0_4 0
x_2_3_0_5 0
x_2_3_1_0 0
x_2_3_1_1 0
x_2_3_1_2 0
x_2_3_1_3 0
x_2_3_1_4 0
x_2_3_1_5 0
x_2_4_0_0 1
x_2_4_0_1 0
x_2_4_0_2 -2.7755575615628914e-17
x_2_4_0_3 1
x_2_4_0_4 -1.1102230246251565e-16
x_2_4_0_5 0
x_2_4_1_0 0
x_2_4_1_1 0
x_2_4_1_2 0
x_2_4_1_3 0
x_2_4_1_4 0
x_2_4_1_5 0
x_2_5_0_0 0
x_2_5_0_1 0
x_2_5_0_2 0
x_2_5_0_3 0
x_2_5_0_4 0
x_2_5_0_5 0
x_2_5_1_0 0
x_2_5_1_1 0
x_2_5_1_2 0
x_2_5_1_3 0
x_2_5_1_4 0
x_2_5_1_5 0
x_2_6_0_0 0
x_2_6_0_1 0
x_2_6_0_2 0
x_2_6_0_3 0
x_2_6_0_4 0
x_2_6_0_5 0
x_2_6_1_0 0
x_2_6_1_1 0
x_2_6_1_2 0
x_2_6_1_3 0
x_2_6_1_4 0
x_2_6_1_5 0
x_2_7_0_0 0
x_2_7_0_1 0
x_2_7_0_2 0
x_2_7_0_3 0
x_2_7_0_4 0
x_2_7_0_5 0
x_2_7_1_0 0
x_2_7_1_1 0
x_2_7_1_2 0
x_2_7_1_3 0
x_2_7_1_4 0
x_2_7_1_5 0
x_2_8_0_0 0
x_2_8_0_1 0
x_2_8_0_2 0
x_2_8_0_3 0
x_2_8_0_4 0
x_2_8_0_5 0
x_2_8_1_0 0
x_2_8_1_1 0
x_2_8_1_2 0
x_2_8_1_3 0
x_2_8_1_4 0
x_2_8_1_5 0
x_2_9_0_0 0
x_2_9_0_1 0
x_2_9_0_2 0
x_2_9_0_3 0
x_2_9_0_4 0
x_2_9_0_5 0
x_2_9_1_0 0
x_2_9_1_1 0
x_2_9_1_2 0
x_2_9_1_3 0
x_2_9_1_4 0
x_2_9_1_5 0
x_2_10_0_0 0
x_2_10_0_1 0
x_2_10_0_2 0
x_2_10_0_3 0
x_2_10_0_4 0
x_2_10_0_5 0
x_2_10_1_0 0
x_2_10_1_1 0
x_2_10_1_2 0
x_2_10_1_3 0
x_2_10_1_4 0
x_2_10_1_5 0
x_3_4_0_0 0
x_3_4_0_1 0
x_3_4_0_2 0
x_3_4_0_3 0
x_3_4_0_4 0
x_3_4_0_5 0
x_3_4_1_0 0
x_3_4_1_1 0
x_3_4_1_2 0
x_3_4_1_3 0
x_3_4_1_4 0
x_3_4_1_5 0
x_3_5_0_0 0
x_3_5_0_1 0
x_3_5_0_2 0
x_3_5_0_3 0
x_3_5_0_4 0
x_3_5_0_5 0
x_3_5_1_0 0
x_3_5_1_1 0
x_3_5_1_2 0
x_3_5_1_3 0
x_3_5_1_4 0
x_3_5_1_5 0
x_3_6_0_0 0
x_3_6_0_1 0
x_3_6_0_2 1
x_3_6_0_3 1
x_3_6_0_4 1
x_3_6_0_5 0
x_3_6_1_0 0
x_3_6_1_1 0
x_3_6_1_2 0
x_3_6_1_3 0
x_3_6_1_4 0
x_3_6_1_5 0
x_3_7_0_0 0
x_3_7_0_1 0
x_3_7_0_2 0
x_3_7_0_3 0
x_3_7_0_4 0
x_3_7_0_5 0
x_3_7_1_0 0
x_3_7_1_1 0
x_3_7_1_2 0
x_3_7_1_3 0
x_3_7_1_4 0
x_3_7_1_5 0
x_3_8_0_0 5.8980598183211441e-16
x_3_8_0_1 9.9999999999999911e-01
x_3_8_0_2 0
x_3_8_0_3 0
x_3_8_0_4 0
x_3_8_0_5 0
x_3_8_1_0 0
x_3_8_1_1 0
x_3_8_1_2 0
x_3_8_1_3 0
x_3_8_1_4 5.5511151231257827e-17
x_3_8_1_5 0
x_3_9_0_0 0
x_3_9_0_1 0
x_3_9_0_2 0
x_3_9_0_3 0
x_3_9_0_4 0
x_3_9_0_5 0
x_3_9_1_0 0
x_3_9_1_1 0
x_3_9_1_2 0
x_3_9_1_3 0
x_3_9_1_4 0
x_3_9_1_5 0
x_3_10_0_0 0
x_3_10_0_1 0
x_3_10_0_2 0
x_3_10_0_3 0
x_3_10_0_4 0
x_3_10_0_5 0
x_3_10_1_0 0
x_3_10_1_1 0
x_3_10_1_2 0
x_3_10_1_3 0
x_3_10_1_4 0
x_3_10_1_5 0
x_4_5_0_0 0
x_4_5_0_1 0
x_4_5_0_2 0
x_4_5_0_3 0
x_4_5_0_4 0
x_4_5_0_5 0
x_4_5_1_0 0
x_4_5_1_1 0
x_4_5_1_2 0
x_4_5_1_3 0
x_4_5_1_4 0
x_4_5_1_5 0
x_4_6_0_0 0
x_4_6_0_1 0
x_4_6_0_2 -1.3877787807814457e-17
x_4_6_0_3 0
x_4_6_0_4 0
x_4_6_0_5 0
x_4_6_1_0 0
x_4_6_1_1 0
x_4_6_1_2 0
x_4_6_1_3 0
x_4_6_1_4 0
x_4_6_1_5 0
x_4_7_0_0 0
x_4_7_0_1 0
x_4_7_0_2 0
x_4_7_0_3 0
x_4_7_0_4 0
x_4_7_0_5 0
x_4_7_1_0 0
x_4_7_1_1 0
x_4_7_1_2 0
x_4_7_1_3 0
x_4_7_1_4 0
x_4_7_1_5 0
x_4_8_0_0 0
x_4_8_0_1 0
x_4_8_0_2 0
x_4_8_0_3 0
x_4_8_0_4 0
x_4_8_0_5 0
x_4_8_1_0 0
x_4_8_1_1 0
x_4_8_1_2 0
x_4_8_1_3 0
x_4_8_1_4 0
x_4_8_1_5 0
x_4_9_0_0 0
x_4_9_0_1 0
x_4_9_0_2 0
x_4_9_0_3 0
x_4_9_0_4 0
x_4_9_0_5 0
x_4_9_1_0 0
x_4_9_1_1 0
x_4_9_1_2 0
x_4_9_1_3 0
x_4_9_1_4 0
x_4_9_1_5 0
x_4_10_0_0 1
x_4_10_0_1 0
x_4_10_0_2 0
x_4_10_0_3 1
x_4_10_0_4 -6.9388939039072284e-18
x_4_10_0_5 0
x_4_10_1_0 0
x_4_10_1_1 0
x_4_10_1_2 0
x_4_10_1_3 0
x_4_10_1_4 0
x_4_10_1_5 0
x_5_6_0_0 0
x_5_6_0_1 0
x_5_6_0_2 0
x_5_6_0_3 0
x_5_6_0_4 0
x_5_6_0_5 0
x_5_6_1_0 2.7755575615628914e-17
x_5_6_1_1 0
x_5_6_1_2 0
x_5_6_1_3 0
x_5_6_1_4 0
x_5_6_1_5 0
x_5_7_0_0 0
x_5_7_0_1 1
x_5_7_0_2 0
x_5_7_0_3 -5.5511151231257827e-17
x_5_7_0_4 0
x_5_7_0_5 0
x_5_7_1_0 -5.5511151231257827e-17
x_5_7_1_1 0
x_5_7_1_2 0
x_5_7_1_3 0
x_5_7_1_4 1
x_5_7_1_5 0
x_5_8_0_0 0
x_5_8_0_1 1
x_5_8_0_2 1
x_5_8_0_3 0
x_5_8_0_4 0
x_5_8_0_5 0
x_5_8_1_0 2.7755575615628914e-17
x_5_8_1_1 0
x_5_8_1_2 0
x_5_8_1_3 0
x_5_8_1_4 0
x_5_8_1_5 0
x_5_9_0_0 0
x_5_9_0_1 0
x_5_9_0_2 0
x_5_9_0_3 -5.5511151231257827e-17
x_5_9_0_4 0
x_5_9_0_5 0
x_5_9_1_0 0
x_5_9_1_1 0
x_5_9_1_2 0
x_5_9_1_3 0
x_5_9_1_4 0
x_5_9_1_5 0
x_5_10_0_0 0
x_5_10_0_1 0
x_5_10_0_2 0
x_5_10_0_3 0
x_5_10_0_4 0
x_5_10_0_5 0
x_5_10_1_0 0
x_5_10_1_1 0
x_5_10_1_2 0
x_5_10_1_3 0
x_5_10_1_4 0
x_5_10_1_5 0
x_6_7_0_0 0
x_6_7_0_1 0
x_6_7_0_2 0
x_6_7_0_3 0
x_6_7_0_4 0
x_6_7_0_5 0
x_6_7_1_0 0
x_6_7_1_1 0
x_6_7_1_2 0
x_6_7_1_3 0
x_6_7_1_4 0
x_6_7_1_5 0
x_6_8_0_0 0
x_6_8_0_1 0
x_6_8_0_2 5.5511151231257827e-17
x_6_8_0_3 0
x_6_8_0_4 0
x_6_8_0_5 0
x_6_8_1_0 0
x_6_8_1_1 0
x_6_8_1_2 0
x_6_8_1_3 0
x_6_8_1_4 0
x_6_8_1_5 0
x_6_9_0_0 1
x_6_9_0_1 0
x_6_9_0_2 1
x_6_9_0_3 0
x_6_9_0_4 1
x_6_9_0_5 0
x_6_9_1_0 2.7755575615628914e-17
x_6_9_1_1 0
x_6_9_1_2 0
x_6_9_1_3 0
x_6_9_1_4 0
x_6_9_1_5 0
x_6_10_0_0 1
x_6_10_0_1 0
x_6_10_0_2 0
x_6_10_0_3 1
x_6_10_0_4 -6.9388939039072284e-18
x_6_10_0_5 0
x_6_10_1_0 0
x_6_10_1_1 -1.3877787807814457e-17
x_6_10_1_2 0
x_6_10_1_3 0
x_6_10_1_4 0
x_6_10_1_5 0
x_7_8_0_0 0
x_7_8_0_1 0
x_7_8_0_2 0
x_7_8_0_3 0
x_7_8_0_4 5.5511151231257827e-17
x_7_8_0_5 0
x_7_8_1_0 0
x_7_8_1_1 0
x_7_8_1_2 0
x_7_8_1_3 0
x_7_8_1_4 0
x_7_8_1_5 0
x_7_9_0_0 0
x_7_9_0_1 0
x_7_9_0_2 0
x_7_9_0_3 0
x_7_9_0_4 5.5511151231257827e-17
x_7_9_0_5 0
x_7_9_1_0 0
x_7_9_1_1 0
x_7_9_1_2 0
x_7_9_1_3 0
x_7_9_1_4 0
x_7_9_1_5 0
x_7_10_0_0 0
x_7_10_0_1 0
x_7_10_0_2 0
x_7_10_0_3 0
x_7_10_0_4 0
x_7_10_0_5 0
x_7_10_1_0 0
x_7_10_1_1 0
x_7_10_1_2 0
x_7_10_1_3 0
x_7_10_1_4 0
x_7_10_1_5 0
x_8_9_0_0 1
x_8_9_0_1 0
x_8_9_0_2 1
x_8_9_0_3 0
x_8_9_0_4 1
x_8_9_0_5 0
x_8_9_1_0 0
x_8_9_1_1 0
x_8_9_1_2 0
x_8_9_1_3 0
x_8_9_1_4 0
x_8_9_1_5 0
x_8_10_0_0 0
x_8_10_0_1 0
x_8_10_0_2 0
x_8_10_0_3 0
x_8_10_0_4 0
x_8_10_0_5 0
x_8_10_1_0 0
x_8_10_1_1 0
x_8_10_1_2 0
x_8_10_1_3 0
x_8_10_1_4 0
x_8_10_1_5 0
x_9_10_0_0 0
x_9_10_0_1 0
x_9_10_0_2 0
x_9_10_0_3 0
x_9_10_0_4 0
x_9_10_0_5 0
x_9_10_1_0 1.3877787807814457e-17
x_9_10_1_1 0
x_9_10_1_2 0
x_9_10_1_3 0
x_9_10_1_4 0
x_9_10_1_5 0
